c description: Random 3-CNF over 15 variables and 15 clauses
c generator: CNFgen (0.9.0)
c copyright: (C) 2012-2020 Massimo Lauria <massimo.lauria@uniroma1.it>
c url: https://massimolauria.net/cnfgen
c
p cnf 15 15
2 3 -8 0
5 6 11 0
9 11 12 0
1 -8 -13 0
-1 -14 -15 0
6 9 -10 0
2 -4 11 0
10 13 -14 0
-1 2 15 0
-1 -9 14 0
-9 10 15 0
1 4 -7 0
-12 14 15 0
-1 4 13 0
-2 -12 -15 0